% demand
num_movements = 27;
loading_factor = [950, 1700, 1750, 1950, 1200, 1200, 850, 1900, 1600, 1050, 1500, 1400, 1400, 1500, 1400, 1300, 1600, 900, 1150, 1200, 1450, 1900, 1000, 1000, 1150, 1350, 1750];
pickup_time = [0, 0, 0, 0, 2, 2, 2, 2, 4, 5, 6, 7, 7, 7, 7, 7, 8, 9, 10, 10, 10, 10, 11, 11, 11, 11, 11];
delivery_time = [1, 1, 5, 1, 5, 5, 5, 4, 5, 6, 7, 8, 9, 9, 8, 8, 9, 11, 11, 11, 11, 11, 12, 12, 12, 12, 12];

% transporter definition
total_capacity = 7000;
num_decks = 3;
capacity = [3000, 1000, 3000];

% ways out of decks
num_ways_out = 1;
paths_out = array3d(decks, ways_out, decks, [
% ways out of deck d1
2, 3, 0, 

% ways out of deck d2
3, 0, 0, 

% ways out of deck d3
0, 0, 0,	

]);

